p cnf 191 807
-1 -33 0
-2 -33 0
1 2 33 0
1 2 -34 0
-1 -2 -34 0
-1 2 34 0
1 -2 34 0
33 -35 0
-3 -35 0
3 -33 35 0
3 -33 -36 0
-3 33 -36 0
3 33 36 0
-3 -33 36 0
35 -37 0
-4 -37 0
4 -35 37 0
4 -35 -38 0
-4 35 -38 0
4 35 38 0
-4 -35 38 0
37 -39 0
-5 -39 0
5 -37 39 0
5 -37 -40 0
-5 37 -40 0
5 37 40 0
-5 -37 40 0
39 -41 0
-6 -41 0
6 -39 41 0
6 -39 -42 0
-6 39 -42 0
6 39 42 0
-6 -39 42 0
41 -43 0
-7 -43 0
7 -41 43 0
7 -41 -44 0
-7 41 -44 0
7 41 44 0
-7 -41 44 0
43 -45 0
-8 -45 0
8 -43 45 0
8 -43 -46 0
-8 43 -46 0
8 43 46 0
-8 -43 46 0
3 -47 0
1 -47 0
-1 -3 47 0
-1 -3 -48 0
1 3 -48 0
1 -3 48 0
-1 3 48 0
-2 -4 49 0
-4 -47 49 0
-2 -47 49 0
2 4 -49 0
4 47 -49 0
2 47 -49 0
4 -49 -50 0
2 -49 -50 0
47 -49 -50 0
-4 49 50 0
-2 49 50 0
-47 49 50 0
-2 -4 -47 50 0
2 4 47 -50 0
-3 -5 51 0
-5 -49 51 0
-3 -49 51 0
3 5 -51 0
5 49 -51 0
3 49 -51 0
5 -51 -52 0
3 -51 -52 0
49 -51 -52 0
-5 51 52 0
-3 51 52 0
-49 51 52 0
-3 -5 -49 52 0
3 5 49 -52 0
-4 -6 53 0
-6 -51 53 0
-4 -51 53 0
4 6 -53 0
6 51 -53 0
4 51 -53 0
6 -53 -54 0
4 -53 -54 0
51 -53 -54 0
-6 53 54 0
-4 53 54 0
-51 53 54 0
-4 -6 -51 54 0
4 6 51 -54 0
-5 -7 55 0
-7 -53 55 0
-5 -53 55 0
5 7 -55 0
7 53 -55 0
5 53 -55 0
7 -55 -56 0
5 -55 -56 0
53 -55 -56 0
-7 55 56 0
-5 55 56 0
-53 55 56 0
-5 -7 -53 56 0
5 7 53 -56 0
-6 -8 57 0
-8 -55 57 0
-6 -55 57 0
6 8 -57 0
8 55 -57 0
6 55 -57 0
8 -57 -58 0
6 -57 -58 0
55 -57 -58 0
-8 57 58 0
-6 57 58 0
-55 57 58 0
-6 -8 -55 58 0
6 8 55 -58 0
7 -59 0
57 -59 0
-7 -57 59 0
-7 -57 -60 0
7 57 -60 0
-7 57 60 0
7 -57 60 0
8 -61 0
59 -61 0
-8 -59 61 0
-8 -59 -62 0
8 59 -62 0
-8 59 62 0
8 -59 62 0
-1 -63 0
-2 -63 0
1 2 63 0
1 2 -64 0
-1 -2 -64 0
-1 2 64 0
1 -2 64 0
63 -65 0
-48 -65 0
48 -63 65 0
48 -63 -66 0
-48 63 -66 0
48 63 66 0
-48 -63 66 0
65 -67 0
-50 -67 0
50 -65 67 0
50 -65 -68 0
-50 65 -68 0
50 65 68 0
-50 -65 68 0
67 -69 0
-52 -69 0
52 -67 69 0
52 -67 -70 0
-52 67 -70 0
52 67 70 0
-52 -67 70 0
69 -71 0
-54 -71 0
54 -69 71 0
54 -69 -72 0
-54 69 -72 0
54 69 72 0
-54 -69 72 0
71 -73 0
-56 -73 0
56 -71 73 0
56 -71 -74 0
-56 71 -74 0
56 71 74 0
-56 -71 74 0
73 -75 0
-58 -75 0
58 -73 75 0
58 -73 -76 0
-58 73 -76 0
58 73 76 0
-58 -73 76 0
75 -77 0
-60 -77 0
60 -75 77 0
60 -75 -78 0
-60 75 -78 0
60 75 78 0
-60 -75 78 0
77 -79 0
-62 -79 0
62 -77 79 0
62 -77 -80 0
-62 77 -80 0
62 77 80 0
-62 -77 80 0
79 -81 0
-61 -81 0
61 -79 81 0
61 -79 -82 0
-61 79 -82 0
61 79 82 0
-61 -79 82 0
-9 -83 0
-10 -83 0
9 10 83 0
9 10 -84 0
-9 -10 -84 0
-9 10 84 0
9 -10 84 0
83 -85 0
-11 -85 0
11 -83 85 0
11 -83 -86 0
-11 83 -86 0
11 83 86 0
-11 -83 86 0
85 -87 0
-12 -87 0
12 -85 87 0
12 -85 -88 0
-12 85 -88 0
12 85 88 0
-12 -85 88 0
87 -89 0
-13 -89 0
13 -87 89 0
13 -87 -90 0
-13 87 -90 0
13 87 90 0
-13 -87 90 0
89 -91 0
-14 -91 0
14 -89 91 0
14 -89 -92 0
-14 89 -92 0
14 89 92 0
-14 -89 92 0
91 -93 0
-15 -93 0
15 -91 93 0
15 -91 -94 0
-15 91 -94 0
15 91 94 0
-15 -91 94 0
93 -95 0
-16 -95 0
16 -93 95 0
16 -93 -96 0
-16 93 -96 0
16 93 96 0
-16 -93 96 0
10 -97 0
9 -97 0
-9 -10 97 0
-9 -10 -98 0
9 10 -98 0
9 -10 98 0
-9 10 98 0
-10 -11 99 0
-11 -97 99 0
-10 -97 99 0
10 11 -99 0
11 97 -99 0
10 97 -99 0
11 -99 -100 0
10 -99 -100 0
97 -99 -100 0
-11 99 100 0
-10 99 100 0
-97 99 100 0
-10 -11 -97 100 0
10 11 97 -100 0
-11 -12 101 0
-12 -99 101 0
-11 -99 101 0
11 12 -101 0
12 99 -101 0
11 99 -101 0
12 -101 -102 0
11 -101 -102 0
99 -101 -102 0
-12 101 102 0
-11 101 102 0
-99 101 102 0
-11 -12 -99 102 0
11 12 99 -102 0
-12 -13 103 0
-13 -101 103 0
-12 -101 103 0
12 13 -103 0
13 101 -103 0
12 101 -103 0
13 -103 -104 0
12 -103 -104 0
101 -103 -104 0
-13 103 104 0
-12 103 104 0
-101 103 104 0
-12 -13 -101 104 0
12 13 101 -104 0
-13 -14 105 0
-14 -103 105 0
-13 -103 105 0
13 14 -105 0
14 103 -105 0
13 103 -105 0
14 -105 -106 0
13 -105 -106 0
103 -105 -106 0
-14 105 106 0
-13 105 106 0
-103 105 106 0
-13 -14 -103 106 0
13 14 103 -106 0
-14 -15 107 0
-15 -105 107 0
-14 -105 107 0
14 15 -107 0
15 105 -107 0
14 105 -107 0
15 -107 -108 0
14 -107 -108 0
105 -107 -108 0
-15 107 108 0
-14 107 108 0
-105 107 108 0
-14 -15 -105 108 0
14 15 105 -108 0
-15 -16 109 0
-16 -107 109 0
-15 -107 109 0
15 16 -109 0
16 107 -109 0
15 107 -109 0
16 -109 -110 0
15 -109 -110 0
107 -109 -110 0
-16 109 110 0
-15 109 110 0
-107 109 110 0
-15 -16 -107 110 0
15 16 107 -110 0
16 -111 0
109 -111 0
-16 -109 111 0
-16 -109 -112 0
16 109 -112 0
-16 109 112 0
16 -109 112 0
102 -113 0
9 -113 0
-9 -102 113 0
-9 -102 -114 0
9 102 -114 0
9 -102 114 0
-9 102 114 0
-10 -104 115 0
-104 -113 115 0
-10 -113 115 0
10 104 -115 0
104 113 -115 0
10 113 -115 0
104 -115 -116 0
10 -115 -116 0
113 -115 -116 0
-104 115 116 0
-10 115 116 0
-113 115 116 0
-10 -104 -113 116 0
10 104 113 -116 0
-11 -106 117 0
-106 -115 117 0
-11 -115 117 0
11 106 -117 0
106 115 -117 0
11 115 -117 0
106 -117 -118 0
11 -117 -118 0
115 -117 -118 0
-106 117 118 0
-11 117 118 0
-115 117 118 0
-11 -106 -115 118 0
11 106 115 -118 0
-12 -108 119 0
-108 -117 119 0
-12 -117 119 0
12 108 -119 0
108 117 -119 0
12 117 -119 0
108 -119 -120 0
12 -119 -120 0
117 -119 -120 0
-108 119 120 0
-12 119 120 0
-117 119 120 0
-12 -108 -117 120 0
12 108 117 -120 0
-13 -110 121 0
-110 -119 121 0
-13 -119 121 0
13 110 -121 0
110 119 -121 0
13 119 -121 0
110 -121 -122 0
13 -121 -122 0
119 -121 -122 0
-110 121 122 0
-13 121 122 0
-119 121 122 0
-13 -110 -119 122 0
13 110 119 -122 0
-14 -112 123 0
-112 -121 123 0
-14 -121 123 0
14 112 -123 0
112 121 -123 0
14 121 -123 0
112 -123 -124 0
14 -123 -124 0
121 -123 -124 0
-112 123 124 0
-14 123 124 0
-121 123 124 0
-14 -112 -121 124 0
14 112 121 -124 0
-15 -111 125 0
-111 -123 125 0
-15 -123 125 0
15 111 -125 0
111 123 -125 0
15 123 -125 0
111 -125 -126 0
15 -125 -126 0
123 -125 -126 0
-111 125 126 0
-15 125 126 0
-123 125 126 0
-15 -111 -123 126 0
15 111 123 -126 0
16 -127 0
125 -127 0
-16 -125 127 0
-16 -125 -128 0
16 125 -128 0
-16 125 128 0
16 -125 128 0
116 -129 0
9 -129 0
-9 -116 129 0
-9 -116 -130 0
9 116 -130 0
9 -116 130 0
-9 116 130 0
-10 -118 131 0
-118 -129 131 0
-10 -129 131 0
10 118 -131 0
118 129 -131 0
10 129 -131 0
118 -131 -132 0
10 -131 -132 0
129 -131 -132 0
-118 131 132 0
-10 131 132 0
-129 131 132 0
-10 -118 -129 132 0
10 118 129 -132 0
-11 -120 133 0
-120 -131 133 0
-11 -131 133 0
11 120 -133 0
120 131 -133 0
11 131 -133 0
120 -133 -134 0
11 -133 -134 0
131 -133 -134 0
-120 133 134 0
-11 133 134 0
-131 133 134 0
-11 -120 -131 134 0
11 120 131 -134 0
-12 -122 135 0
-122 -133 135 0
-12 -133 135 0
12 122 -135 0
122 133 -135 0
12 133 -135 0
122 -135 -136 0
12 -135 -136 0
133 -135 -136 0
-122 135 136 0
-12 135 136 0
-133 135 136 0
-12 -122 -133 136 0
12 122 133 -136 0
-13 -124 137 0
-124 -135 137 0
-13 -135 137 0
13 124 -137 0
124 135 -137 0
13 135 -137 0
124 -137 -138 0
13 -137 -138 0
135 -137 -138 0
-124 137 138 0
-13 137 138 0
-135 137 138 0
-13 -124 -135 138 0
13 124 135 -138 0
-14 -126 139 0
-126 -137 139 0
-14 -137 139 0
14 126 -139 0
126 137 -139 0
14 137 -139 0
126 -139 -140 0
14 -139 -140 0
137 -139 -140 0
-126 139 140 0
-14 139 140 0
-137 139 140 0
-14 -126 -137 140 0
14 126 137 -140 0
-15 -128 141 0
-128 -139 141 0
-15 -139 141 0
15 128 -141 0
128 139 -141 0
15 139 -141 0
128 -141 -142 0
15 -141 -142 0
139 -141 -142 0
-128 141 142 0
-15 141 142 0
-139 141 142 0
-15 -128 -139 142 0
15 128 139 -142 0
-16 -127 143 0
-127 -141 143 0
-16 -141 143 0
16 127 -143 0
127 141 -143 0
16 141 -143 0
127 -143 -144 0
16 -143 -144 0
141 -143 -144 0
-127 143 144 0
-16 143 144 0
-141 143 144 0
-16 -127 -141 144 0
16 127 141 -144 0
-9 -145 0
-98 -145 0
9 98 145 0
9 98 -146 0
-9 -98 -146 0
-9 98 146 0
9 -98 146 0
145 -147 0
-100 -147 0
100 -145 147 0
100 -145 -148 0
-100 145 -148 0
100 145 148 0
-100 -145 148 0
147 -149 0
-114 -149 0
114 -147 149 0
114 -147 -150 0
-114 147 -150 0
114 147 150 0
-114 -147 150 0
149 -151 0
-130 -151 0
130 -149 151 0
130 -149 -152 0
-130 149 -152 0
130 149 152 0
-130 -149 152 0
151 -153 0
-132 -153 0
132 -151 153 0
132 -151 -154 0
-132 151 -154 0
132 151 154 0
-132 -151 154 0
153 -155 0
-134 -155 0
134 -153 155 0
134 -153 -156 0
-134 153 -156 0
134 153 156 0
-134 -153 156 0
155 -157 0
-136 -157 0
136 -155 157 0
136 -155 -158 0
-136 155 -158 0
136 155 158 0
-136 -155 158 0
157 -159 0
-138 -159 0
138 -157 159 0
138 -157 -160 0
-138 157 -160 0
138 157 160 0
-138 -157 160 0
159 -161 0
-140 -161 0
140 -159 161 0
140 -159 -162 0
-140 159 -162 0
140 159 162 0
-140 -159 162 0
161 -163 0
-142 -163 0
142 -161 163 0
142 -161 -164 0
-142 161 -164 0
142 161 164 0
-142 -161 164 0
163 -165 0
-144 -165 0
144 -163 165 0
144 -163 -166 0
-144 163 -166 0
144 163 166 0
-144 -163 166 0
165 -167 0
-143 -167 0
143 -165 167 0
143 -165 -168 0
-143 165 -168 0
143 165 168 0
-143 -165 168 0
1 -169 0
100 -169 0
-1 -100 169 0
-1 -100 -170 0
1 100 -170 0
-1 100 170 0
1 -100 170 0
-2 -114 171 0
-2 -169 171 0
-114 -169 171 0
2 114 -171 0
2 169 -171 0
114 169 -171 0
2 -171 -172 0
114 -171 -172 0
169 -171 -172 0
-2 171 172 0
-114 171 172 0
-169 171 172 0
-2 -114 -169 172 0
2 114 169 -172 0
-48 -130 173 0
-48 -171 173 0
-130 -171 173 0
48 130 -173 0
48 171 -173 0
130 171 -173 0
48 -173 -174 0
130 -173 -174 0
171 -173 -174 0
-48 173 174 0
-130 173 174 0
-171 173 174 0
-48 -130 -171 174 0
48 130 171 -174 0
-50 -132 175 0
-50 -173 175 0
-132 -173 175 0
50 132 -175 0
50 173 -175 0
132 173 -175 0
50 -175 -176 0
132 -175 -176 0
173 -175 -176 0
-50 175 176 0
-132 175 176 0
-173 175 176 0
-50 -132 -173 176 0
50 132 173 -176 0
-52 -134 177 0
-52 -175 177 0
-134 -175 177 0
52 134 -177 0
52 175 -177 0
134 175 -177 0
52 -177 -178 0
134 -177 -178 0
175 -177 -178 0
-52 177 178 0
-134 177 178 0
-175 177 178 0
-52 -134 -175 178 0
52 134 175 -178 0
-54 -136 179 0
-54 -177 179 0
-136 -177 179 0
54 136 -179 0
54 177 -179 0
136 177 -179 0
54 -179 -180 0
136 -179 -180 0
177 -179 -180 0
-54 179 180 0
-136 179 180 0
-177 179 180 0
-54 -136 -177 180 0
54 136 177 -180 0
-56 -138 181 0
-56 -179 181 0
-138 -179 181 0
56 138 -181 0
56 179 -181 0
138 179 -181 0
56 -181 -182 0
138 -181 -182 0
179 -181 -182 0
-56 181 182 0
-138 181 182 0
-179 181 182 0
-56 -138 -179 182 0
56 138 179 -182 0
-58 -140 183 0
-58 -181 183 0
-140 -181 183 0
58 140 -183 0
58 181 -183 0
140 181 -183 0
58 -183 -184 0
140 -183 -184 0
181 -183 -184 0
-58 183 184 0
-140 183 184 0
-181 183 184 0
-58 -140 -181 184 0
58 140 181 -184 0
-60 -142 185 0
-60 -183 185 0
-142 -183 185 0
60 142 -185 0
60 183 -185 0
142 183 -185 0
60 -185 -186 0
142 -185 -186 0
183 -185 -186 0
-60 185 186 0
-142 185 186 0
-183 185 186 0
-60 -142 -183 186 0
60 142 183 -186 0
-62 -144 187 0
-62 -185 187 0
-144 -185 187 0
62 144 -187 0
62 185 -187 0
144 185 -187 0
62 -187 -188 0
144 -187 -188 0
185 -187 -188 0
-62 187 188 0
-144 187 188 0
-185 187 188 0
-62 -144 -185 188 0
62 144 185 -188 0
-61 -143 189 0
-61 -187 189 0
-143 -187 189 0
61 143 -189 0
61 187 -189 0
143 187 -189 0
61 -189 -190 0
143 -189 -190 0
187 -189 -190 0
-61 189 190 0
-143 189 190 0
-187 189 190 0
-61 -143 -187 190 0
61 143 187 -190 0
9 -191 0
98 -191 0
170 -191 0
-172 -191 0
-174 -191 0
176 -191 0
178 -191 0
180 -191 0
-182 -191 0
-184 -191 0
-186 -191 0
-188 -191 0
-189 -191 0
-190 -191 0
-9 -98 -170 172 174 -176 -178 -180 182 184 186 188 189 190 191 0
191 0
c main::$tmp::return_value_nondet_char!0@1#1 17 18 19 20 21 22 23 24
c symex::nondet1 9 10 11 12 13 14 15 16
c symex::nondet0 1 2 3 4 5 6 7 8
c main::$tmp::return_value_nondet_char$0!0@1#2 9 10 11 12 13 14 15 16
c __CPROVER_rounding_mode!0#1 FALSE FALSE FALSE FALSE FALSE FALSE FALSE FALSE FALSE FALSE FALSE FALSE FALSE FALSE FALSE FALSE FALSE FALSE FALSE FALSE FALSE FALSE FALSE FALSE FALSE FALSE FALSE FALSE FALSE FALSE FALSE FALSE
c main::$tmp::return_value_nondet_char$0!0@1#1 25 26 27 28 29 30 31 32
c __CPROVER_memory_leak#1 FALSE FALSE FALSE FALSE FALSE FALSE FALSE FALSE FALSE FALSE FALSE FALSE FALSE FALSE FALSE FALSE FALSE FALSE FALSE FALSE FALSE FALSE FALSE FALSE FALSE FALSE FALSE FALSE FALSE FALSE FALSE FALSE FALSE FALSE FALSE FALSE FALSE FALSE FALSE FALSE FALSE FALSE FALSE FALSE FALSE FALSE FALSE FALSE FALSE FALSE FALSE FALSE FALSE FALSE FALSE FALSE FALSE FALSE FALSE FALSE FALSE FALSE FALSE FALSE
c __CPROVER_max_malloc_size#1 FALSE FALSE FALSE FALSE FALSE FALSE FALSE FALSE FALSE FALSE FALSE FALSE FALSE FALSE FALSE FALSE FALSE FALSE FALSE FALSE FALSE FALSE FALSE FALSE FALSE FALSE FALSE FALSE FALSE FALSE FALSE FALSE FALSE FALSE FALSE FALSE FALSE FALSE FALSE FALSE FALSE FALSE FALSE FALSE FALSE FALSE FALSE FALSE FALSE FALSE FALSE FALSE FALSE FALSE FALSE TRUE FALSE FALSE FALSE FALSE FALSE FALSE FALSE FALSE
c __CPROVER_deallocated#1 FALSE FALSE FALSE FALSE FALSE FALSE FALSE FALSE FALSE FALSE FALSE FALSE FALSE FALSE FALSE FALSE FALSE FALSE FALSE FALSE FALSE FALSE FALSE FALSE FALSE FALSE FALSE FALSE FALSE FALSE FALSE FALSE FALSE FALSE FALSE FALSE FALSE FALSE FALSE FALSE FALSE FALSE FALSE FALSE FALSE FALSE FALSE FALSE FALSE FALSE FALSE FALSE FALSE FALSE FALSE FALSE FALSE FALSE FALSE FALSE FALSE FALSE FALSE FALSE
c main::$tmp::return_value_nondet_char!0@1#2 1 2 3 4 5 6 7 8
c __CPROVER_dead_object#1 FALSE FALSE FALSE FALSE FALSE FALSE FALSE FALSE FALSE FALSE FALSE FALSE FALSE FALSE FALSE FALSE FALSE FALSE FALSE FALSE FALSE FALSE FALSE FALSE FALSE FALSE FALSE FALSE FALSE FALSE FALSE FALSE FALSE FALSE FALSE FALSE FALSE FALSE FALSE FALSE FALSE FALSE FALSE FALSE FALSE FALSE FALSE FALSE FALSE FALSE FALSE FALSE FALSE FALSE FALSE FALSE FALSE FALSE FALSE FALSE FALSE FALSE FALSE FALSE
